<number of tasks>
20

<cycle time>
1000

<order strength>
0,5


<task times>
1 124
2 103
3 535
4 203
5 112
6 44
7 26
8 237
9 505
10 120
11 198
12 341
13 514
14 41
15 354
16 510
17 45
18 276
19 540
20 452

<precedence relations>
1,5
2,5
2,6
2,7
3,17
4,5
4,7
5,8
6,9
6,10
7,17
8,11
8,12
9,11
9,12
9,13
10,13
11,14
11,15
11,16
14,19
15,18
16,17
16,19
16,20

<end>
